315035
313284
313284
313284
309367
309081
306656
306656
306656
306656
302798
302798
302798
301044
299926
299926
297194
297194
297194
296555
293289
293289
293289
289894
289894
286932
286932
286932
285727
285727
285212
281578
281578
281578
278516
278516
278323
275491
275491
271830
271830
271830
271830
271830
271830
271830
271830
270969
270969
270789
267488
267488
267488
267488
267488
267488
266116
266116
266116
266116
264878
264878
264878
264070
264070
264070
264070
260797
260797
260797
260797
260406
258815
258815
258815
258815
258815
258815
258815
258815
258815
256976
256976
256976
256976
256976
256976
256976
255420
255001
255001
255001
254745
254745
254404
254404
253564
253540
253540
252145
